319, 0, 0, 72, 2
320, 0, 1, 83, 3
321, 0, 2, 91, 0
322, 0, 3, 84, 1
323, 1, 0, 59, 1
324, 1, 1, 86, 3
325, 1, 2, 30, 2
326, 1, 3, 77, 0
327, 2, 0, 57, 1
328, 2, 1, 66, 3
329, 2, 2, 96, 0
330, 2, 3, 37, 2
331, 3, 0, 53, 1
332, 3, 1, 35, 2
333, 3, 2, 90, 3
334, 3, 3, 32, 0
